p td 100 84 
37 20
35 29
35 45
95 4
95 5
95 7
14 63
14 69
14 76
14 89
41 4
41 5
41 72
84 80
53 16
53 39
53 55
62 2
62 76
6 26
6 69
81 51
81 85
81 96
9 63
18 76
66 28
77 60
33 28
64 60
64 61
64 69
1 76
91 26
91 56
83 60
47 43
46 60
46 63
74 11
30 63
30 100
82 11
82 20
82 100
87 61
87 63
93 80
32 56
36 94
34 43
34 51
99 4
59 4
59 16
59 28
59 48
38 48
24 16
24 60
19 76
27 67
27 100
78 69
78 97
68 29
31 21
52 29
12 39
54 3
54 29
50 97
90 45
42 69
22 5
98 7
98 55
23 63
58 2
58 61
58 92
49 5
49 100
65 21
